peakDumbCharging = 11100; 
Machine = anon_enum(16); 
machineSpeed = [3700,3700,3700,3700,3700,3700,3700,3700,3700,3700,3700,3700,3700,3700,3700,3700]; 
machineLoad = [3700,3700,3700,3700,3700,3700,3700,3700,3700,3700,3700,3700,3700,3700,3700,3700]; 
Car = anon_enum(12); 
demandCar = [1520,18000,13320,1560,10360,3160,2320,11680,13600,3120,8160,15280]; 
arrivalCar = [78,64,63,59,57,57,54,52,51,44,41,39]; 
departureCar = [80,71,68,62,62,60,57,59,56,49,45,45]; 
